DATASET = "thpack1";
INSTANCE = "060";

WIDTH = 233;
HEIGHT = 220;
LENGTH = 587;

NO_OF_SHAPES = 3;
size = [|
  78,72,58 |
  107,57,57 |
  72,64,37 |
|];

verticality = [|
  1,1,1 |
  1,1,1 |
  1,1,1 |
|];

box_count = [
  36,
  37,
  32,
];
